;  depth   = 3
;  nconst  = 6
;  assertions = 7
;  timeout = 2500
;  time    = {'smt_solvers/QF_S/z3str3fed/': 0.25258493423461914, 'smt_solvers/QF_S/z3str3/': 0.6787936687469482, 'smt_solvers/QF_S/cvc4/': 79.30850028991699, 'smt_solvers/QF_S/z3seq/': 0.3480825424194336}
;  score   = 78.62970662117004
;  stdout  = {'smt_solvers/QF_S/z3str3fed/': 'unsat', 'smt_solvers/QF_S/z3str3/': 'unsat', 'smt_solvers/QF_S/cvc4/': 'unsat', 'smt_solvers/QF_S/z3seq/': 'unsat'}
(set-logic ALL)(declare-fun var0 () String)(declare-fun var1 () String)(declare-fun var2 () String)(declare-fun var3 () String)(declare-fun var4 () String)(declare-fun var5 () String)(declare-fun var6 () Int)(declare-fun var7 () Int)(declare-fun var8 () Int)(declare-fun var9 () Int)(declare-fun var10 () Int)(declare-fun var11 () Int)(declare-fun var12 () Bool)(declare-fun var13 () Bool)(declare-fun var14 () Bool)(declare-fun var15 () Bool)(declare-fun var16 () Bool)(declare-fun var17 () Bool)(assert (str.suffixof (str.replace "u+R[ZMY[;]" var0 var3) (str.at (str.at var0 var9) (str.indexof var0 var0 (str.indexof var2 var2 var9)))))(assert (< (str.indexof var4 "k@CSTU@h@7" var6) (str.indexof var4 var4 (str.indexof (str.replace var0 var0 var0) (str.replace var2 var0 var5) (str.indexof var4 var0 var9)))))(assert (>= (str.len var2) (str.len (str.replace var3 var3 var2))))(assert (< (str.indexof "8Cz7mXb_`x" var5 6) (str.indexof (str.substr var4 var9 var9) (str.at var3 var7) (str.indexof var4 var1 var11))))(assert (> (str.indexof "uq/[kq.#{{" "uq/[kq.#{{" (str.indexof (str.substr var2 var8 var6) (str.replace var0 var0 var0) (str.indexof var1 var4 var11))) (str.indexof var0 var0 (str.indexof var4 var4 (str.indexof (str.replace var2 var4 var5) (str.substr var0 var11 var10) (str.len var2))))))(assert (str.contains (str.replace var3 var5 var4) (str.at var4 6)))(assert (str.contains (str.replace var3 var0 var4) (str.replace var4 var2 "-vkcQFv]\\S")))(check-sat)